NAME          
ROWS
 N  OBJ
 L  c1
 L  c2
 L  c3
 L  c4
 L  c5
COLUMNS
    MARKER    'MARKER'                 'INTORG'
    x[1]      c1        100
    x[1]      c2        569
    x[1]      c3        948
    x[1]      c4        708
    x[1]      c5        706
    x[1]      OBJ       -259
    x[2]      c1        426
    x[2]      c2        666
    x[2]      c3        128
    x[2]      c4        863
    x[2]      c5        748
    x[2]      OBJ       -799
    x[3]      c1        46
    x[3]      c2        304
    x[3]      c3        192
    x[3]      c4        50
    x[3]      c5        464
    x[3]      OBJ       -698
    x[4]      c1        464
    x[4]      c2        675
    x[4]      c3        442
    x[4]      c4        762
    x[4]      c5        948
    x[4]      OBJ       -345
    x[5]      c1        248
    x[5]      c2        238
    x[5]      c3        113
    x[5]      c4        88
    x[5]      c5        574
    x[5]      OBJ       -27
    x[6]      c1        588
    x[6]      c2        120
    x[6]      c3        922
    x[6]      c4        909
    x[6]      c5        907
    x[6]      OBJ       -626
    x[7]      c1        300
    x[7]      c2        325
    x[7]      c3        877
    x[7]      c4        8
    x[7]      c5        744
    x[7]      OBJ       -231
    x[8]      c1        54
    x[8]      c2        611
    x[8]      c3        261
    x[8]      c4        55
    x[8]      c5        729
    x[8]      OBJ       -585
    x[9]      c1        916
    x[9]      c2        410
    x[9]      c3        353
    x[9]      c4        808
    x[9]      c5        644
    x[9]      OBJ       -438
    x[10]     c1        810
    x[10]     c2        100
    x[10]     c3        853
    x[10]     c4        493
    x[10]     c5        259
    x[10]     OBJ       -378
    x[11]     c1        544
    x[11]     c2        595
    x[11]     c3        769
    x[11]     c4        214
    x[11]     c5        153
    x[11]     OBJ       -505
    x[12]     c1        10
    x[12]     c2        291
    x[12]     c3        17
    x[12]     c4        401
    x[12]     c5        33
    x[12]     OBJ       -561
    x[13]     c1        561
    x[13]     c2        74
    x[13]     c3        869
    x[13]     c4        55
    x[13]     c5        729
    x[13]     OBJ       -329
    x[14]     c1        303
    x[14]     c2        308
    x[14]     c3        699
    x[14]     c4        615
    x[14]     c5        280
    x[14]     OBJ       -661
    x[15]     c1        862
    x[15]     c2        566
    x[15]     c3        527
    x[15]     c4        911
    x[15]     c5        365
    x[15]     OBJ       -349
    x[16]     c1        434
    x[16]     c2        453
    x[16]     c3        889
    x[16]     c4        421
    x[16]     c5        184
    x[16]     OBJ       -894
    x[17]     c1        497
    x[17]     c2        679
    x[17]     c3        177
    x[17]     c4        842
    x[17]     c5        842
    x[17]     OBJ       -214
    x[18]     c1        954
    x[18]     c2        877
    x[18]     c3        277
    x[18]     c4        709
    x[18]     c5        409
    x[18]     OBJ       -523
    x[19]     c1        769
    x[19]     c2        484
    x[19]     c3        611
    x[19]     c4        733
    x[19]     c5        282
    x[19]     OBJ       -386
    x[20]     c1        544
    x[20]     c2        537
    x[20]     c3        33
    x[20]     c4        443
    x[20]     c5        811
    x[20]     OBJ       -536
    x[21]     c1        993
    x[21]     c2        587
    x[21]     c3        306
    x[21]     c4        642
    x[21]     c5        540
    x[21]     OBJ       -828
    x[22]     c1        947
    x[22]     c2        29
    x[22]     c3        782
    x[22]     c4        897
    x[22]     c5        914
    x[22]     OBJ       -444
    x[23]     c1        348
    x[23]     c2        3
    x[23]     c3        66
    x[23]     c4        742
    x[23]     c5        360
    x[23]     OBJ       -855
    x[24]     c1        757
    x[24]     c2        301
    x[24]     c3        331
    x[24]     c4        661
    x[24]     c5        164
    x[24]     OBJ       -653
    x[25]     c1        223
    x[25]     c2        491
    x[25]     c3        921
    x[25]     c4        463
    x[25]     c5        904
    x[25]     OBJ       -952
    x[26]     c1        924
    x[26]     c2        229
    x[26]     c3        64
    x[26]     c4        671
    x[26]     c5        194
    x[26]     OBJ       -846
    x[27]     c1        940
    x[27]     c2        472
    x[27]     c3        643
    x[27]     c4        920
    x[27]     c5        918
    x[27]     OBJ       -479
    x[28]     c1        422
    x[28]     c2        464
    x[28]     c3        587
    x[28]     c4        48
    x[28]     c5        820
    x[28]     OBJ       -8
    x[29]     c1        83
    x[29]     c2        885
    x[29]     c3        333
    x[29]     c4        695
    x[29]     c5        754
    x[29]     OBJ       -544
    x[30]     c1        527
    x[30]     c2        784
    x[30]     c3        382
    x[30]     c4        929
    x[30]     c5        997
    x[30]     OBJ       -620
    x[31]     c1        322
    x[31]     c2        765
    x[31]     c3        314
    x[31]     c4        930
    x[31]     c5        367
    x[31]     OBJ       -66
    x[32]     c1        132
    x[32]     c2        605
    x[32]     c3        101
    x[32]     c4        255
    x[32]     c5        802
    x[32]     OBJ       -800
    x[33]     c1        650
    x[33]     c2        235
    x[33]     c3        677
    x[33]     c4        660
    x[33]     c5        808
    x[33]     OBJ       -878
    x[34]     c1        344
    x[34]     c2        719
    x[34]     c3        510
    x[34]     c4        867
    x[34]     c5        584
    x[34]     OBJ       -328
    x[35]     c1        167
    x[35]     c2        822
    x[35]     c3        791
    x[35]     c4        200
    x[35]     c5        433
    x[35]     OBJ       -941
    x[36]     c1        248
    x[36]     c2        718
    x[36]     c3        932
    x[36]     c4        381
    x[36]     c5        868
    x[36]     OBJ       -45
    x[37]     c1        417
    x[37]     c2        701
    x[37]     c3        325
    x[37]     c4        823
    x[37]     c5        924
    x[37]     OBJ       -693
    x[38]     c1        675
    x[38]     c2        407
    x[38]     c3        552
    x[38]     c4        35
    x[38]     c5        900
    x[38]     OBJ       -642
    x[39]     c1        592
    x[39]     c2        302
    x[39]     c3        136
    x[39]     c4        874
    x[39]     c5        333
    x[39]     OBJ       -628
    x[40]     c1        465
    x[40]     c2        93
    x[40]     c3        503
    x[40]     c4        220
    x[40]     c5        577
    x[40]     OBJ       -642
    x[41]     c1        739
    x[41]     c2        310
    x[41]     c3        748
    x[41]     c4        393
    x[41]     c5        124
    x[41]     OBJ       -567
    x[42]     c1        640
    x[42]     c2        537
    x[42]     c3        222
    x[42]     c4        645
    x[42]     c5        673
    x[42]     OBJ       -542
    x[43]     c1        989
    x[43]     c2        574
    x[43]     c3        65
    x[43]     c4        28
    x[43]     c5        528
    x[43]     OBJ       -26
    x[44]     c1        824
    x[44]     c2        654
    x[44]     c3        546
    x[44]     c4        991
    x[44]     c5        346
    x[44]     OBJ       -339
    x[45]     c1        588
    x[45]     c2        384
    x[45]     c3        938
    x[45]     c4        892
    x[45]     c5        999
    x[45]     OBJ       -947
    x[46]     c1        39
    x[46]     c2        321
    x[46]     c3        219
    x[46]     c4        99
    x[46]     c5        51
    x[46]     OBJ       -996
    x[47]     c1        434
    x[47]     c2        784
    x[47]     c3        4
    x[47]     c4        362
    x[47]     c5        52
    x[47]     OBJ       -173
    x[48]     c1        756
    x[48]     c2        879
    x[48]     c3        47
    x[48]     c4        885
    x[48]     c5        919
    x[48]     OBJ       -85
    x[49]     c1        427
    x[49]     c2        712
    x[49]     c3        475
    x[49]     c4        874
    x[49]     c5        876
    x[49]     OBJ       -8
    x[50]     c1        568
    x[50]     c2        64
    x[50]     c3        71
    x[50]     c4        942
    x[50]     c5        836
    x[50]     OBJ       -148
RHS
    rhs       c1        12805
    rhs       c2        11856
    rhs       c3        11274
    rhs       c4        14056
    rhs       c5        14688
RANGES
BOUNDS
 BV bounds    x[1]
 BV bounds    x[2]
 BV bounds    x[3]
 BV bounds    x[4]
 BV bounds    x[5]
 BV bounds    x[6]
 BV bounds    x[7]
 BV bounds    x[8]
 BV bounds    x[9]
 BV bounds    x[10]
 BV bounds    x[11]
 BV bounds    x[12]
 BV bounds    x[13]
 BV bounds    x[14]
 BV bounds    x[15]
 BV bounds    x[16]
 BV bounds    x[17]
 BV bounds    x[18]
 BV bounds    x[19]
 BV bounds    x[20]
 BV bounds    x[21]
 BV bounds    x[22]
 BV bounds    x[23]
 BV bounds    x[24]
 BV bounds    x[25]
 BV bounds    x[26]
 BV bounds    x[27]
 BV bounds    x[28]
 BV bounds    x[29]
 BV bounds    x[30]
 BV bounds    x[31]
 BV bounds    x[32]
 BV bounds    x[33]
 BV bounds    x[34]
 BV bounds    x[35]
 BV bounds    x[36]
 BV bounds    x[37]
 BV bounds    x[38]
 BV bounds    x[39]
 BV bounds    x[40]
 BV bounds    x[41]
 BV bounds    x[42]
 BV bounds    x[43]
 BV bounds    x[44]
 BV bounds    x[45]
 BV bounds    x[46]
 BV bounds    x[47]
 BV bounds    x[48]
 BV bounds    x[49]
 BV bounds    x[50]
ENDATA
